benchmark/results/graph__10-1000-0.10-04_17/graph__10-1000-0.10-04_17_QuintonOs_Benders_primal_sub.lp
\ This file has been generated by DOcplex
\ ENCODING=ISO-8859-1
\Problem name: Quinton Bounded Benders_primal_sub

Maximize
 obj: tau
Subject To
 c1: tau <= 0.001096491228
 c2: y_a0_proc_0 + y_a0_proc_1 + y_a0_proc_2 + y_a0_proc_3 - tau = 0
 c3: y_a0_proc_0 <= 0
 c4: y_a0_proc_1 <= 0
 c5: y_a0_proc_2 <= 0
 c6: y_a0_proc_3 <= 1
 c7: tau <= 0.001724137931
 c8: y_a1_proc_0 + y_a1_proc_1 + y_a1_proc_2 + y_a1_proc_3 - tau = 0
 c9: y_a1_proc_0 <= 0
 c10: y_a1_proc_1 <= 1
 c11: y_a1_proc_2 <= 0
 c12: y_a1_proc_3 <= 0
 c13: tau <= 0.001240694789
 c14: y_a2_proc_0 + y_a2_proc_1 + y_a2_proc_2 + y_a2_proc_3 - tau = 0
 c15: y_a2_proc_0 <= 0
 c16: y_a2_proc_1 <= 0
 c17: y_a2_proc_2 <= 1
 c18: y_a2_proc_3 <= 0
 c19: tau <= 0.002754820937
 c20: y_a3_proc_0 + y_a3_proc_2 + y_a3_proc_3 - tau = 0
 c21: y_a3_proc_0 <= 0
 c22: y_a3_proc_2 <= 1
 c23: y_a3_proc_3 <= 0
 c24: tau <= 0.000992063492
 c25: y_a4_proc_0 + y_a4_proc_2 - tau = 0
 c26: y_a4_proc_0 <= 1
 c27: y_a4_proc_2 <= 0
 c28: tau <= 0.001607717042
 c29: y_a5_proc_0 + y_a5_proc_1 + y_a5_proc_3 - tau = 0
 c30: y_a5_proc_0 <= 1
 c31: y_a5_proc_1 <= 0
 c32: y_a5_proc_3 <= 0
 c33: tau <= 0.001587301587
 c34: y_a6_proc_1 - tau = 0
 c35: y_a6_proc_1 <= 1
 c36: tau <= 0.002288329519
 c37: y_a7_proc_0 + y_a7_proc_1 + y_a7_proc_2 - tau = 0
 c38: y_a7_proc_0 <= 0
 c39: y_a7_proc_1 <= 1
 c40: y_a7_proc_2 <= 0
 c41: tau <= 0.001724137931
 c42: y_a8_proc_0 + y_a8_proc_1 + y_a8_proc_3 - tau = 0
 c43: y_a8_proc_0 <= 0
 c44: y_a8_proc_1 <= 1
 c45: y_a8_proc_3 <= 0
 c46: tau <= 0.001008064516
 c47: y_a9_proc_0 + y_a9_proc_1 + y_a9_proc_2 + y_a9_proc_3 - tau = 0
 c48: y_a9_proc_0 <= 0
 c49: y_a9_proc_1 <= 0
 c50: y_a9_proc_2 <= 1
 c51: y_a9_proc_3 <= 0
 c52: u_a1 - u_a0 - 1124 y_a0_proc_0 - 1259 y_a0_proc_1 - 979 y_a0_proc_2
      - 912 y_a0_proc_3 >= 0
 c53: u_a2 - u_a1 - 910 y_a1_proc_0 - 580 y_a1_proc_1 - 678 y_a1_proc_2
      - 977 y_a1_proc_3 >= 0
 c54: u_a0 - u_a3 - 1173 y_a3_proc_0 - 363 y_a3_proc_2 - 1188 y_a3_proc_3 >= 0
 c55: u_a3 - u_a4 - 1008 y_a4_proc_0 - 1220 y_a4_proc_2 >= -1
 c56: u_a4 - u_a5 - 622 y_a5_proc_0 - 1139 y_a5_proc_1 - 758 y_a5_proc_3 >= 0
 c57: u_a3 - u_a6 - 630 y_a6_proc_1 >= 0
 c58: u_a7 - u_a6 - 630 y_a6_proc_1 >= 0
 c59: u_a7 - u_a8 - 639 y_a8_proc_0 - 580 y_a8_proc_1 - 1030 y_a8_proc_3 >= 0
 c60: u_a9 - u_a7 - 932 y_a7_proc_0 - 437 y_a7_proc_1 - 1150 y_a7_proc_2 >= 0
 c61: u_a9 - u_a8 - 639 y_a8_proc_0 - 580 y_a8_proc_1 - 1030 y_a8_proc_3 >= 0
 c62: u_a7 - u_a2 - 1182 y_a2_proc_0 - 532 y_a2_proc_1 - 806 y_a2_proc_2
      - 513 y_a2_proc_3 >= -1
 c63: u_a5 - u_a6 - 630 y_a6_proc_1 >= 0
 c64: - 1182 y_a2_proc_0 - 532 y_a2_proc_1 - 806 y_a2_proc_2 - 513 y_a2_proc_3
       >= -1
 c65: u_a3 - u_a9 - 1015 y_a9_proc_0 - 879 y_a9_proc_1 - 992 y_a9_proc_2
      - 358 y_a9_proc_3 >= -1
 c66: u_a4 - u_a7 - 932 y_a7_proc_0 - 437 y_a7_proc_1 - 1150 y_a7_proc_2 >= 0
 c67: u_a0 - u_a7 - 932 y_a7_proc_0 - 437 y_a7_proc_1 - 1150 y_a7_proc_2 >= -1
 c68: u_a6 - u_a5 - 622 y_a5_proc_0 - 1139 y_a5_proc_1 - 758 y_a5_proc_3 >= -1
 c69: u_a8 - u_a1 - 910 y_a1_proc_0 - 580 y_a1_proc_1 - 678 y_a1_proc_2
      - 977 y_a1_proc_3 >= 0
 c70: u_a2 - u_a9 - 1015 y_a9_proc_0 - 879 y_a9_proc_1 - 992 y_a9_proc_2
      - 358 y_a9_proc_3 >= 0
 c71: u_a1 - u_a0 - 979 y_a0_proc_2 >= -2532
 c72: u_a1 - u_a0 - 912 y_a0_proc_3 >= -1273
 c73: u_a1 - u_a0 - 1124 y_a0_proc_0 >= -2532
 c74: u_a1 - u_a0 - 1259 y_a0_proc_1 >= -1273
 c75: u_a0 - u_a1 - 678 y_a1_proc_2 >= -2505
 c76: u_a0 - u_a1 - 977 y_a1_proc_3 >= -1246
 c77: u_a0 - u_a1 - 910 y_a1_proc_0 >= -2505
 c78: u_a0 - u_a1 - 580 y_a1_proc_1 >= -1246
 c79: u_a2 - u_a0 - 979 y_a0_proc_2 >= -1273
 c80: u_a2 - u_a0 - 912 y_a0_proc_3 >= -1273
 c81: u_a2 - u_a0 - 1124 y_a0_proc_0 >= -2532
 c82: u_a2 - u_a0 - 1259 y_a0_proc_1 >= -2532
 c83: u_a0 - u_a2 - 806 y_a2_proc_2 >= -1246
 c84: u_a0 - u_a2 - 513 y_a2_proc_3 >= -1246
 c85: u_a0 - u_a2 - 1182 y_a2_proc_0 >= -2505
 c86: u_a0 - u_a2 - 532 y_a2_proc_1 >= -2505
 c87: u_a3 - u_a0 - 979 y_a0_proc_2 >= -1273
 c88: u_a3 - u_a0 - 912 y_a0_proc_3 >= -1273
 c89: u_a3 - u_a0 - 1124 y_a0_proc_0 >= -2532
 c90: u_a0 - u_a3 - 363 y_a3_proc_2 >= -1246
 c91: u_a0 - u_a3 - 1188 y_a3_proc_3 >= -1246
 c92: u_a0 - u_a3 - 1173 y_a3_proc_0 >= -2505
 c93: u_a4 - u_a0 - 979 y_a0_proc_2 >= -2532
 c94: u_a4 - u_a0 - 1124 y_a0_proc_0 >= -1273
 c95: u_a0 - u_a4 - 1220 y_a4_proc_2 >= -2505
 c96: u_a0 - u_a4 - 1008 y_a4_proc_0 >= -1246
 c97: u_a5 - u_a0 - 912 y_a0_proc_3 >= -1273
 c98: u_a5 - u_a0 - 1124 y_a0_proc_0 >= -1273
 c99: u_a5 - u_a0 - 1259 y_a0_proc_1 >= -2532
 c100: u_a0 - u_a5 - 758 y_a5_proc_3 >= -1246
 c101: u_a0 - u_a5 - 622 y_a5_proc_0 >= -1246
 c102: u_a0 - u_a5 - 1139 y_a5_proc_1 >= -2505
 c103: u_a6 - u_a0 - 1259 y_a0_proc_1 >= -1273
 c104: u_a0 - u_a6 - 630 y_a6_proc_1 >= -1246
 c105: u_a7 - u_a0 - 979 y_a0_proc_2 >= -2532
 c106: u_a7 - u_a0 - 1124 y_a0_proc_0 >= -2532
 c107: u_a7 - u_a0 - 1259 y_a0_proc_1 >= -1273
 c108: u_a0 - u_a7 - 1150 y_a7_proc_2 >= -2505
 c109: u_a0 - u_a7 - 932 y_a7_proc_0 >= -2505
 c110: u_a0 - u_a7 - 437 y_a7_proc_1 >= -1246
 c111: u_a8 - u_a0 - 912 y_a0_proc_3 >= -1273
 c112: u_a8 - u_a0 - 1124 y_a0_proc_0 >= -2532
 c113: u_a8 - u_a0 - 1259 y_a0_proc_1 >= -1273
 c114: u_a0 - u_a8 - 1030 y_a8_proc_3 >= -1246
 c115: u_a0 - u_a8 - 639 y_a8_proc_0 >= -2505
 c116: u_a0 - u_a8 - 580 y_a8_proc_1 >= -1246
 c117: u_a9 - u_a0 - 979 y_a0_proc_2 >= -1273
 c118: u_a9 - u_a0 - 912 y_a0_proc_3 >= -1273
 c119: u_a9 - u_a0 - 1124 y_a0_proc_0 >= -2532
 c120: u_a9 - u_a0 - 1259 y_a0_proc_1 >= -2532
 c121: u_a0 - u_a9 - 992 y_a9_proc_2 >= -1246
 c122: u_a0 - u_a9 - 358 y_a9_proc_3 >= -1246
 c123: u_a0 - u_a9 - 1015 y_a9_proc_0 >= -2505
 c124: u_a0 - u_a9 - 879 y_a9_proc_1 >= -2505
 c125: u_a2 - u_a1 - 678 y_a1_proc_2 >= -1273
 c126: u_a2 - u_a1 - 977 y_a1_proc_3 >= -2532
 c127: u_a2 - u_a1 - 910 y_a1_proc_0 >= -2532
 c128: u_a2 - u_a1 - 580 y_a1_proc_1 >= -1273
 c129: u_a1 - u_a2 - 806 y_a2_proc_2 >= -1246
 c130: u_a1 - u_a2 - 513 y_a2_proc_3 >= -2505
 c131: u_a1 - u_a2 - 1182 y_a2_proc_0 >= -2505
 c132: u_a1 - u_a2 - 532 y_a2_proc_1 >= -1246
 c133: u_a3 - u_a1 - 678 y_a1_proc_2 >= -1273
 c134: u_a3 - u_a1 - 977 y_a1_proc_3 >= -2532
 c135: u_a3 - u_a1 - 910 y_a1_proc_0 >= -2532
 c136: u_a1 - u_a3 - 363 y_a3_proc_2 >= -1246
 c137: u_a1 - u_a3 - 1188 y_a3_proc_3 >= -2505
 c138: u_a1 - u_a3 - 1173 y_a3_proc_0 >= -2505
 c139: u_a4 - u_a1 - 678 y_a1_proc_2 >= -2532
 c140: u_a4 - u_a1 - 910 y_a1_proc_0 >= -1273
 c141: u_a1 - u_a4 - 1220 y_a4_proc_2 >= -2505
 c142: u_a1 - u_a4 - 1008 y_a4_proc_0 >= -1246
 c143: u_a5 - u_a1 - 977 y_a1_proc_3 >= -2532
 c144: u_a5 - u_a1 - 910 y_a1_proc_0 >= -1273
 c145: u_a5 - u_a1 - 580 y_a1_proc_1 >= -1273
 c146: u_a1 - u_a5 - 758 y_a5_proc_3 >= -2505
 c147: u_a1 - u_a5 - 622 y_a5_proc_0 >= -1246
 c148: u_a1 - u_a5 - 1139 y_a5_proc_1 >= -1246
 c149: u_a6 - u_a1 - 580 y_a1_proc_1 >= -1
 c150: u_a1 - u_a6 - 630 y_a6_proc_1 >= 0
 c151: u_a7 - u_a1 - 678 y_a1_proc_2 >= -2518
 c152: u_a7 - u_a1 - 910 y_a1_proc_0 >= -2518
 c153: u_a7 - u_a1 - 580 y_a1_proc_1 >= 0
 c154: u_a1 - u_a7 - 1150 y_a7_proc_2 >= -2519
 c155: u_a1 - u_a7 - 932 y_a7_proc_0 >= -2519
 c156: u_a1 - u_a7 - 437 y_a7_proc_1 >= -1
 c157: u_a8 - u_a1 - 977 y_a1_proc_3 >= -2518
 c158: u_a8 - u_a1 - 910 y_a1_proc_0 >= -2518
 c159: u_a8 - u_a1 - 580 y_a1_proc_1 >= 0
 c160: u_a1 - u_a8 - 1030 y_a8_proc_3 >= -2519
 c161: u_a1 - u_a8 - 639 y_a8_proc_0 >= -2519
 c162: u_a1 - u_a8 - 580 y_a8_proc_1 >= -1
 c163: u_a9 - u_a1 - 678 y_a1_proc_2 >= -1273
 c164: u_a9 - u_a1 - 977 y_a1_proc_3 >= -2532
 c165: u_a9 - u_a1 - 910 y_a1_proc_0 >= -2532
 c166: u_a9 - u_a1 - 580 y_a1_proc_1 >= -1273
 c167: u_a1 - u_a9 - 992 y_a9_proc_2 >= -1246
 c168: u_a1 - u_a9 - 358 y_a9_proc_3 >= -2505
 c169: u_a1 - u_a9 - 1015 y_a9_proc_0 >= -2505
 c170: u_a1 - u_a9 - 879 y_a9_proc_1 >= -1246
 c171: u_a3 - u_a2 - 806 y_a2_proc_2 >= -2
 c172: u_a3 - u_a2 - 513 y_a2_proc_3 >= -2520
 c173: u_a3 - u_a2 - 1182 y_a2_proc_0 >= -2520
 c174: u_a2 - u_a3 - 363 y_a3_proc_2 >= 1
 c175: u_a2 - u_a3 - 1188 y_a3_proc_3 >= -2517
 c176: u_a2 - u_a3 - 1173 y_a3_proc_0 >= -2517
 c177: u_a4 - u_a2 - 806 y_a2_proc_2 >= -1246
 c178: u_a4 - u_a2 - 1182 y_a2_proc_0 >= -1246
 c179: u_a2 - u_a4 - 1220 y_a4_proc_2 >= -1273
 c180: u_a2 - u_a4 - 1008 y_a4_proc_0 >= -1273
 c181: u_a5 - u_a2 - 513 y_a2_proc_3 >= -2532
 c182: u_a5 - u_a2 - 1182 y_a2_proc_0 >= -1273
 c183: u_a5 - u_a2 - 532 y_a2_proc_1 >= -2532
 c184: u_a2 - u_a5 - 758 y_a5_proc_3 >= -2505
 c185: u_a2 - u_a5 - 622 y_a5_proc_0 >= -1246
 c186: u_a2 - u_a5 - 1139 y_a5_proc_1 >= -2505
 c187: u_a6 - u_a2 - 532 y_a2_proc_1 >= -1246
 c188: u_a2 - u_a6 - 630 y_a6_proc_1 >= -1273
 c189: u_a7 - u_a2 - 806 y_a2_proc_2 >= -1273
 c190: u_a7 - u_a2 - 1182 y_a2_proc_0 >= -2532
 c191: u_a7 - u_a2 - 532 y_a2_proc_1 >= -1273
 c192: u_a2 - u_a7 - 1150 y_a7_proc_2 >= -1246
 c193: u_a2 - u_a7 - 932 y_a7_proc_0 >= -2505
 c194: u_a2 - u_a7 - 437 y_a7_proc_1 >= -1246
 c195: u_a8 - u_a2 - 513 y_a2_proc_3 >= -2532
 c196: u_a8 - u_a2 - 1182 y_a2_proc_0 >= -2532
 c197: u_a8 - u_a2 - 532 y_a2_proc_1 >= -1273
 c198: u_a2 - u_a8 - 1030 y_a8_proc_3 >= -2505
 c199: u_a2 - u_a8 - 639 y_a8_proc_0 >= -2505
 c200: u_a2 - u_a8 - 580 y_a8_proc_1 >= -1246
 c201: u_a9 - u_a2 - 806 y_a2_proc_2 >= -1
 c202: u_a9 - u_a2 - 513 y_a2_proc_3 >= -2519
 c203: u_a9 - u_a2 - 1182 y_a2_proc_0 >= -2519
 c204: u_a9 - u_a2 - 532 y_a2_proc_1 >= -2519
 c205: u_a2 - u_a9 - 992 y_a9_proc_2 >= 0
 c206: u_a2 - u_a9 - 358 y_a9_proc_3 >= -2518
 c207: u_a2 - u_a9 - 1015 y_a9_proc_0 >= -2518
 c208: u_a2 - u_a9 - 879 y_a9_proc_1 >= -2518
 c209: u_a4 - u_a3 - 363 y_a3_proc_2 >= -1273
 c210: u_a4 - u_a3 - 1173 y_a3_proc_0 >= -1273
 c211: u_a3 - u_a4 - 1220 y_a4_proc_2 >= -1246
 c212: u_a3 - u_a4 - 1008 y_a4_proc_0 >= -1246
 c213: u_a5 - u_a3 - 1188 y_a3_proc_3 >= -2532
 c214: u_a5 - u_a3 - 1173 y_a3_proc_0 >= -1273
 c215: u_a3 - u_a5 - 758 y_a5_proc_3 >= -2505
 c216: u_a3 - u_a5 - 622 y_a5_proc_0 >= -1246
 c217: u_a7 - u_a3 - 363 y_a3_proc_2 >= -1273
 c218: u_a7 - u_a3 - 1173 y_a3_proc_0 >= -2532
 c219: u_a3 - u_a7 - 1150 y_a7_proc_2 >= -1246
 c220: u_a3 - u_a7 - 932 y_a7_proc_0 >= -2505
 c221: u_a8 - u_a3 - 1188 y_a3_proc_3 >= -2532
 c222: u_a8 - u_a3 - 1173 y_a3_proc_0 >= -2532
 c223: u_a3 - u_a8 - 1030 y_a8_proc_3 >= -2505
 c224: u_a3 - u_a8 - 639 y_a8_proc_0 >= -2505
 c225: u_a9 - u_a3 - 363 y_a3_proc_2 >= 0
 c226: u_a9 - u_a3 - 1188 y_a3_proc_3 >= -2518
 c227: u_a9 - u_a3 - 1173 y_a3_proc_0 >= -2518
 c228: u_a3 - u_a9 - 992 y_a9_proc_2 >= -1
 c229: u_a3 - u_a9 - 358 y_a9_proc_3 >= -2519
 c230: u_a3 - u_a9 - 1015 y_a9_proc_0 >= -2519
 c231: u_a5 - u_a4 - 1008 y_a4_proc_0 >= -1
 c232: u_a4 - u_a5 - 622 y_a5_proc_0 >= 0
 c233: u_a7 - u_a4 - 1220 y_a4_proc_2 >= -2532
 c234: u_a7 - u_a4 - 1008 y_a4_proc_0 >= -1273
 c235: u_a4 - u_a7 - 1150 y_a7_proc_2 >= -2505
 c236: u_a4 - u_a7 - 932 y_a7_proc_0 >= -1246
 c237: u_a8 - u_a4 - 1008 y_a4_proc_0 >= -1273
 c238: u_a4 - u_a8 - 639 y_a8_proc_0 >= -1246
 c239: u_a9 - u_a4 - 1220 y_a4_proc_2 >= -1273
 c240: u_a9 - u_a4 - 1008 y_a4_proc_0 >= -1273
 c241: u_a4 - u_a9 - 992 y_a9_proc_2 >= -1246
 c242: u_a4 - u_a9 - 1015 y_a9_proc_0 >= -1246
 c243: u_a6 - u_a5 - 1139 y_a5_proc_1 >= -1273
 c244: u_a5 - u_a6 - 630 y_a6_proc_1 >= -1246
 c245: u_a7 - u_a5 - 622 y_a5_proc_0 >= -1273
 c246: u_a7 - u_a5 - 1139 y_a5_proc_1 >= -1273
 c247: u_a5 - u_a7 - 932 y_a7_proc_0 >= -1246
 c248: u_a5 - u_a7 - 437 y_a7_proc_1 >= -1246
 c249: u_a8 - u_a5 - 758 y_a5_proc_3 >= -2532
 c250: u_a8 - u_a5 - 622 y_a5_proc_0 >= -1273
 c251: u_a8 - u_a5 - 1139 y_a5_proc_1 >= -1273
 c252: u_a5 - u_a8 - 1030 y_a8_proc_3 >= -2505
 c253: u_a5 - u_a8 - 639 y_a8_proc_0 >= -1246
 c254: u_a5 - u_a8 - 580 y_a8_proc_1 >= -1246
 c255: u_a9 - u_a5 - 758 y_a5_proc_3 >= -2532
 c256: u_a9 - u_a5 - 622 y_a5_proc_0 >= -1273
 c257: u_a9 - u_a5 - 1139 y_a5_proc_1 >= -2532
 c258: u_a5 - u_a9 - 358 y_a9_proc_3 >= -2505
 c259: u_a5 - u_a9 - 1015 y_a9_proc_0 >= -1246
 c260: u_a5 - u_a9 - 879 y_a9_proc_1 >= -2505
 c261: u_a7 - u_a6 - 630 y_a6_proc_1 >= 0
 c262: u_a6 - u_a7 - 437 y_a7_proc_1 >= -1
 c263: u_a8 - u_a6 - 630 y_a6_proc_1 >= 0
 c264: u_a6 - u_a8 - 580 y_a8_proc_1 >= -1
 c265: u_a9 - u_a6 - 630 y_a6_proc_1 >= -1273
 c266: u_a6 - u_a9 - 879 y_a9_proc_1 >= -1246
 c267: u_a8 - u_a7 - 932 y_a7_proc_0 >= -2519
 c268: u_a8 - u_a7 - 437 y_a7_proc_1 >= -1
 c269: u_a7 - u_a8 - 639 y_a8_proc_0 >= -2518
 c270: u_a7 - u_a8 - 580 y_a8_proc_1 >= 0
 c271: u_a9 - u_a7 - 1150 y_a7_proc_2 >= -1273
 c272: u_a9 - u_a7 - 932 y_a7_proc_0 >= -2532
 c273: u_a9 - u_a7 - 437 y_a7_proc_1 >= -1273
 c274: u_a7 - u_a9 - 992 y_a9_proc_2 >= -1246
 c275: u_a7 - u_a9 - 1015 y_a9_proc_0 >= -2505
 c276: u_a7 - u_a9 - 879 y_a9_proc_1 >= -1246
 c277: u_a9 - u_a8 - 1030 y_a8_proc_3 >= -2532
 c278: u_a9 - u_a8 - 639 y_a8_proc_0 >= -2532
 c279: u_a9 - u_a8 - 580 y_a8_proc_1 >= -1273
 c280: u_a8 - u_a9 - 358 y_a9_proc_3 >= -2505
 c281: u_a8 - u_a9 - 1015 y_a9_proc_0 >= -2505
 c282: u_a8 - u_a9 - 879 y_a9_proc_1 >= -1246

Bounds
End
