benchmark/results/graph__10-1000-0.10-04_17/graph__10-1000-0.10-04_17_QuintonOs_Benders_primal_sub.txt
solution for: Quinton Bounded Benders_primal_sub
objective: 0.000257732
status: OPTIMAL_SOLUTION(2)
u_a0=0.353
u_a1=0.588
u_a2=1.353
u_a3=0.260
u_a4=1.000
u_a5=0.260
u_a7=0.887
u_a8=0.738
u_a9=1.000
tau=0.000
y_a0_proc_3=0.000
y_a1_proc_1=0.000
y_a2_proc_2=0.000
y_a3_proc_2=0.000
y_a4_proc_0=0.000
y_a5_proc_0=0.000
y_a6_proc_1=0.000
y_a7_proc_1=0.000
y_a8_proc_1=0.000
y_a9_proc_2=0.000
